100
2665
74 11 63 98 34 5 1 19 85 76 61 98 95 48 41 99 3 35 63 26 94 53 69 70 88 13 25 73 71 90 94 34 85 79 88 12 55 43 12 47 53 33 57 90 13 97 26 90 82 38 13 6 76 26 84 47 63 25 66 74 83 90 65 4 82 47 32 78 56 39 46 76 16 12 65 87 68 26 15 78 85 35 40 93 26 49 62 29 18 77 27 90 67 2 25 100 22 3 83 43
72 86 80 80 40 48 49 68 50 38 17 87 63 7 24 55 77 96 51 13 57 32 12 78 86 58 58 49 10 67 55 61 39 91 53 11 25 96 88 35 58 63 93 23 3 3 69 16 33 76 47 25 33 65 58 43 67 33 53 54 79 63 35 78 61 85 62 63 19 93 49 64 40 82 60 42 47 85 21 80 49 89 78 35 41 83 51 63 94 21 38 72 1 80 58 8 24 4 79 100
